NAME:  test1
TYPE: AGTSP
COMMENT: gtsp tours
DIMENSION:  65
GTSP_SETS: 17
EDGE_WEIGHT_TYPE: EXPLICIT
EDGE_WEIGHT_FORMAT: FULL_MATRIX 
EDGE_WEIGHT_SECTION
999999	0	999999	999999	26018	26018	26010	999999	26022	26022	26022	26014	26031	26031	26031	26023	26031	26031	26031	26023	26040	26040	26040	26032	26040	26040	26040	26032	26036	26036	26036	26028	26033	26033	26033	26025	26005	26005	25997	999999	26007	26007	25999	999999	26026	26026	26026	26018	26023	26023	26023	26015	26014	26014	26006	999999	26040	26040	26040	26032	26006
999999	999999	0	999999	26018	26018	26018	26010	26022	26022	26022	999999	26031	26031	26031	999999	26031	26031	26031	999999	26040	26040	26040	999999	26040	26040	26040	999999	26036	26036	26036	999999	26033	26033	26033	999999	26005	26005	26005	25997	26007	26007	26007	25999	26026	26026	26026	999999	26023	26023	26023	999999	26014	26014	26014	26006	26040	26040	26040	999999	26006
999999	999999	999999	0	26018	26018	26018	26018	26022	26022	26022	26022	26031	26031	26031	26031	26031	26031	26031	26031	26040	26040	26040	26040	26040	26040	26040	26040	26036	26036	26036	26036	26033	26033	26033	26033	26005	26005	26005	26005	26007	26007	26007	26007	26026	26026	26026	26026	26023	26023	26023	26023	26014	26014	26014	26014	26040	26040	26040	26040	26006
0	999999	999999	999999	26018	26010	999999	999999	26022	26022	26014	999999	26031	26031	26023	999999	26031	26031	26023	999999	26040	26040	26032	999999	26040	26040	26032	999999	26036	26036	26028	999999	26033	26033	26025	999999	26005	25997	999999	999999	26007	25999	999999	999999	26026	26026	26018	999999	26023	26023	26015	999999	26014	26006	999999	999999	26040	26040	26032	999999	26006
26018	26018	26010	999999	999999	0	999999	999999	26008	26008	26000	999999	26040	26040	26040	26032	26044	26044	999999	999999	26048	26048	999999	999999	26045	26045	999999	999999	26052	26052	999999	999999	26049	26049	999999	999999	26022	26022	26022	26014	26012	26012	26004	999999	26021	26021	26021	26013	26038	26038	26038	26030	26016	26016	26008	999999	26058	26058	999999	999999	26025
26018	26018	26018	26010	999999	999999	0	999999	26008	26008	26008	26000	26040	26040	26040	999999	26044	26044	26044	999999	26048	26048	26048	999999	26045	26045	26045	999999	26052	26052	26052	999999	26049	26049	26049	999999	26022	26022	26022	999999	26012	26012	26012	26004	26021	26021	26021	999999	26038	26038	26038	999999	26016	26016	26016	26008	26058	26058	26058	999999	26025
26018	26018	26018	26018	999999	999999	999999	0	26008	26008	26008	26008	26040	26040	26040	26040	26044	26044	26044	26044	26048	26048	26048	26048	26045	26045	26045	26045	26052	26052	26052	26052	26049	26049	26049	26049	26022	26022	26022	26022	26012	26012	26012	26012	26021	26021	26021	26021	26038	26038	26038	26038	26016	26016	26016	26016	26058	26058	26058	26058	26025
26018	26010	999999	999999	0	999999	999999	999999	26008	26000	999999	999999	26040	26040	26032	999999	26044	26044	26044	26036	26048	26048	26048	26040	26045	26045	26045	26037	26052	26052	26052	26044	26049	26049	26049	26041	26022	26022	26014	999999	26012	26004	999999	999999	26021	26021	26013	999999	26038	26038	26030	999999	26016	26008	999999	999999	26058	26058	26058	26050	26025
26022	26022	26022	26014	26008	26008	26000	999999	999999	0	999999	999999	26036	26036	26036	26028	26042	26042	999999	999999	26043	26043	999999	999999	26039	26039	26039	26031	26053	26053	999999	999999	26055	26055	999999	999999	26027	26027	26027	26019	26019	26019	26011	999999	26014	26014	26006	999999	26038	26038	26038	26030	26024	26024	26024	26016	26060	26060	999999	999999	26029
26022	26022	26022	999999	26008	26008	26008	26000	999999	999999	0	999999	26036	26036	26036	999999	26042	26042	26042	999999	26043	26043	26043	999999	26039	26039	26039	999999	26053	26053	26053	999999	26055	26055	26055	999999	26027	26027	26027	999999	26019	26019	26019	26011	26014	26014	26014	26006	26038	26038	26038	999999	26024	26024	26024	999999	26060	26060	26060	999999	26029
26022	26022	26022	26022	26008	26008	26008	26008	999999	999999	999999	0	26036	26036	26036	26036	26042	26042	26042	26042	26043	26043	26043	26043	26039	26039	26039	26039	26053	26053	26053	26053	26055	26055	26055	26055	26027	26027	26027	26027	26019	26019	26019	26019	26014	26014	26014	26014	26038	26038	26038	26038	26024	26024	26024	26024	26060	26060	26060	26060	26029
26022	26022	26014	999999	26008	26000	999999	999999	0	999999	999999	999999	26036	26036	26028	999999	26042	26042	26042	26034	26043	26043	26043	26035	26039	26039	26031	999999	26053	26053	26053	26045	26055	26055	26055	26047	26027	26027	26019	999999	26019	26011	999999	999999	26014	26006	999999	999999	26038	26038	26030	999999	26024	26024	26016	999999	26060	26060	26060	26052	26029
26031	26031	26031	26023	26040	26040	26040	26032	26036	26036	26036	26028	999999	0	999999	999999	26008	26008	26000	999999	26008	26008	26000	999999	26011	26011	26003	999999	26023	26023	26023	26015	26054	26054	999999	999999	26034	26034	26034	26026	26037	26037	26037	26029	26024	26024	26024	26016	26015	26015	26007	999999	26045	26045	999999	999999	26037	26037	26037	26029	26031
26031	26031	26031	999999	26040	26040	26040	999999	26036	26036	26036	999999	999999	999999	0	999999	26008	26008	26008	26000	26008	26008	26008	26000	26011	26011	26011	26003	26023	26023	26023	999999	26054	26054	26054	999999	26034	26034	26034	999999	26037	26037	26037	999999	26024	26024	26024	999999	26015	26015	26015	26007	26045	26045	26045	999999	26037	26037	26037	999999	26031
26031	26031	26031	26031	26040	26040	26040	26040	26036	26036	26036	26036	999999	999999	999999	0	26008	26008	26008	26008	26008	26008	26008	26008	26011	26011	26011	26011	26023	26023	26023	26023	26054	26054	26054	26054	26034	26034	26034	26034	26037	26037	26037	26037	26024	26024	26024	26024	26015	26015	26015	26015	26045	26045	26045	26045	26037	26037	26037	26037	26031
26031	26031	26023	999999	26040	26040	26032	999999	26036	26036	26028	999999	0	999999	999999	999999	26008	26000	999999	999999	26008	26000	999999	999999	26011	26003	999999	999999	26023	26023	26015	999999	26054	26054	26054	26046	26034	26034	26026	999999	26037	26037	26029	999999	26024	26024	26016	999999	26015	26007	999999	999999	26045	26045	26045	26037	26037	26037	26029	999999	26031
26031	26031	26031	26023	26044	26044	999999	999999	26042	26042	999999	999999	26008	26008	26000	999999	999999	0	999999	999999	26013	26013	26005	999999	26019	26019	26011	999999	26014	26014	26006	999999	26049	26049	999999	999999	26032	26032	26032	26024	26038	26038	26038	26030	26031	26031	26031	26023	26010	26010	26002	999999	26046	26046	999999	999999	26028	26028	26028	26020	26029
26031	26031	26031	999999	26044	26044	26044	999999	26042	26042	26042	999999	26008	26008	26008	26000	999999	999999	0	999999	26013	26013	26013	26005	26019	26019	26019	26011	26014	26014	26014	26006	26049	26049	26049	999999	26032	26032	26032	999999	26038	26038	26038	999999	26031	26031	26031	999999	26010	26010	26010	26002	26046	26046	26046	999999	26028	26028	26028	999999	26029
26031	26031	26031	26031	26044	26044	26044	26044	26042	26042	26042	26042	26008	26008	26008	26008	999999	999999	999999	0	26013	26013	26013	26013	26019	26019	26019	26019	26014	26014	26014	26014	26049	26049	26049	26049	26032	26032	26032	26032	26038	26038	26038	26038	26031	26031	26031	26031	26010	26010	26010	26010	26046	26046	26046	26046	26028	26028	26028	26028	26029
26031	26031	26023	999999	26044	26044	26044	26036	26042	26042	26042	26034	26008	26000	999999	999999	0	999999	999999	999999	26013	26005	999999	999999	26019	26011	999999	999999	26014	26006	999999	999999	26049	26049	26049	26041	26032	26032	26024	999999	26038	26038	26030	999999	26031	26031	26023	999999	26010	26002	999999	999999	26046	26046	26046	26038	26028	26028	26020	999999	26029
26040	26040	26040	26032	26048	26048	999999	999999	26043	26043	999999	999999	26008	26008	26000	999999	26013	26013	26005	999999	999999	0	999999	999999	26007	26007	25999	999999	26027	26027	26027	26019	26062	26062	999999	999999	26043	26043	999999	999999	26046	26046	999999	999999	26030	26030	26030	26022	26023	26023	26023	26015	26054	26054	999999	999999	26042	26042	999999	999999	26040
26040	26040	26040	999999	26048	26048	26048	999999	26043	26043	26043	999999	26008	26008	26008	26000	26013	26013	26013	26005	999999	999999	0	999999	26007	26007	26007	25999	26027	26027	26027	999999	26062	26062	26062	999999	26043	26043	26043	999999	26046	26046	26046	999999	26030	26030	26030	999999	26023	26023	26023	999999	26054	26054	26054	999999	26042	26042	26042	999999	26040
26040	26040	26040	26040	26048	26048	26048	26048	26043	26043	26043	26043	26008	26008	26008	26008	26013	26013	26013	26013	999999	999999	999999	0	26007	26007	26007	26007	26027	26027	26027	26027	26062	26062	26062	26062	26043	26043	26043	26043	26046	26046	26046	26046	26030	26030	26030	26030	26023	26023	26023	26023	26054	26054	26054	26054	26042	26042	26042	26042	26040
26040	26040	26032	999999	26048	26048	26048	26040	26043	26043	26043	26035	26008	26000	999999	999999	26013	26005	999999	999999	0	999999	999999	999999	26007	25999	999999	999999	26027	26027	26019	999999	26062	26062	26062	26054	26043	26043	26043	26035	26046	26046	26046	26038	26030	26030	26022	999999	26023	26023	26015	999999	26054	26054	26054	26046	26042	26042	26042	26034	26040
26040	26040	26040	26032	26045	26045	999999	999999	26039	26039	26039	26031	26011	26011	26003	999999	26019	26019	26011	999999	26007	26007	25999	999999	999999	0	999999	999999	26034	26034	26034	26026	26066	26066	999999	999999	26044	26044	999999	999999	26045	26045	999999	999999	26025	26025	26025	26017	26028	26028	26028	26020	26054	26054	999999	999999	26048	26048	999999	999999	26042
26040	26040	26040	999999	26045	26045	26045	999999	26039	26039	26039	999999	26011	26011	26011	26003	26019	26019	26019	26011	26007	26007	26007	25999	999999	999999	0	999999	26034	26034	26034	999999	26066	26066	26066	999999	26044	26044	26044	999999	26045	26045	26045	999999	26025	26025	26025	999999	26028	26028	26028	999999	26054	26054	26054	999999	26048	26048	26048	999999	26042
26040	26040	26040	26040	26045	26045	26045	26045	26039	26039	26039	26039	26011	26011	26011	26011	26019	26019	26019	26019	26007	26007	26007	26007	999999	999999	999999	0	26034	26034	26034	26034	26066	26066	26066	26066	26044	26044	26044	26044	26045	26045	26045	26045	26025	26025	26025	26025	26028	26028	26028	26028	26054	26054	26054	26054	26048	26048	26048	26048	26042
26040	26040	26032	999999	26045	26045	26045	26037	26039	26039	26031	999999	26011	26003	999999	999999	26019	26011	999999	999999	26007	25999	999999	999999	0	999999	999999	999999	26034	26034	26026	999999	26066	999999	999999	999999	26044	26044	26044	26036	26045	26045	26045	26037	26025	26025	26017	999999	26028	26028	26020	999999	26054	26054	26054	26046	26048	26048	26048	26040	26042
26036	26036	26036	26028	26052	26052	999999	999999	26053	26053	999999	999999	26023	26023	26023	26015	26014	26014	26006	999999	26027	26027	26027	26019	26034	26034	26034	26026	999999	0	999999	999999	26042	26042	999999	999999	26035	26035	26035	26027	26044	26044	999999	999999	26045	26045	999999	999999	26014	26014	26006	999999	26050	26050	999999	999999	26014	26014	26006	999999	26031
26036	26036	26036	999999	26052	26052	26052	999999	26053	26053	26053	999999	26023	26023	26023	999999	26014	26014	26014	26006	26027	26027	26027	999999	26034	26034	26034	999999	999999	999999	0	999999	26042	26042	26042	999999	26035	26035	26035	999999	26044	26044	26044	999999	26045	26045	26045	999999	26014	26014	26014	26006	26050	26050	26050	999999	26014	26014	26014	26006	26031
26036	26036	26036	26036	26052	26052	26052	26052	26053	26053	26053	26053	26023	26023	26023	26023	26014	26014	26014	26014	26027	26027	26027	26027	26034	26034	26034	26034	999999	999999	999999	0	26042	26042	26042	26042	26035	26035	26035	26035	26044	26044	26044	26044	26045	26045	26045	26045	26014	26014	26014	26014	26050	26050	26050	26050	26014	26014	26014	26014	26031
26036	26036	26028	999999	26052	26052	26052	26044	26053	26053	26053	26045	26023	26023	26015	999999	26014	26006	999999	999999	26027	26027	26019	999999	26034	26034	26026	999999	0	999999	999999	999999	26042	26042	26042	26034	26035	26035	26027	999999	26044	26044	26044	26036	26045	26045	26045	26037	26014	26006	999999	999999	26050	26050	26050	26042	26014	26006	999999	999999	26031
26033	26033	26033	26025	26049	26049	999999	999999	26055	26055	999999	999999	26054	26054	999999	999999	26049	26049	999999	999999	26062	26062	999999	999999	26066	26066	999999	999999	26042	26042	999999	999999	999999	0	999999	999999	26027	26027	26027	26019	26036	26036	26036	26028	26059	26059	999999	999999	26039	26039	26039	26031	26034	26034	26034	26026	26032	26032	26032	26024	26027
26033	26033	26033	999999	26049	26049	26049	999999	26055	26055	26055	999999	26054	26054	26054	999999	26049	26049	26049	999999	26062	26062	26062	999999	26066	26066	26066	999999	26042	26042	26042	999999	999999	999999	0	999999	26027	26027	26027	999999	26036	26036	26036	999999	26059	26059	26059	999999	26039	26039	26039	999999	26034	26034	26034	999999	26032	26032	26032	999999	26027
26033	26033	26033	26033	26049	26049	26049	26049	26055	26055	26055	26055	26054	26054	26054	26054	26049	26049	26049	26049	26062	26062	26062	26062	26066	26066	26066	26066	26042	26042	26042	26042	999999	999999	999999	0	26027	26027	26027	26027	26036	26036	26036	26036	26059	26059	26059	26059	26039	26039	26039	26039	26034	26034	26034	26034	26032	26032	26032	26032	26027
26033	26033	26025	999999	26049	26049	26049	26041	26055	26055	26055	26047	26054	26054	26054	26046	26049	26049	26049	26041	26062	26062	26062	26054	26066	999999	999999	999999	26042	26042	26042	26034	0	999999	999999	999999	26027	26027	26019	999999	26036	26036	26028	999999	26059	26059	26059	26051	26039	26039	26031	999999	26034	26034	26026	999999	26032	26032	26024	999999	26027
26005	26005	25997	999999	26022	26022	26022	26014	26027	26027	26027	26019	26034	26034	26034	26026	26032	26032	26032	26024	26043	26043	999999	999999	26044	26044	999999	999999	26035	26035	26035	26027	26027	26027	26027	26019	999999	0	999999	999999	26010	26010	26002	999999	26031	26031	26031	26023	26023	26023	26023	26015	26014	26014	26006	999999	26036	26036	26036	26028	26003
26005	26005	26005	25997	26022	26022	26022	999999	26027	26027	26027	999999	26034	26034	26034	999999	26032	26032	26032	999999	26043	26043	26043	999999	26044	26044	26044	999999	26035	26035	26035	999999	26027	26027	26027	999999	999999	999999	0	999999	26010	26010	26010	26002	26031	26031	26031	999999	26023	26023	26023	999999	26014	26014	26014	26006	26036	26036	26036	999999	26003
26005	26005	26005	26005	26022	26022	26022	26022	26027	26027	26027	26027	26034	26034	26034	26034	26032	26032	26032	26032	26043	26043	26043	26043	26044	26044	26044	26044	26035	26035	26035	26035	26027	26027	26027	26027	999999	999999	999999	0	26010	26010	26010	26010	26031	26031	26031	26031	26023	26023	26023	26023	26014	26014	26014	26014	26036	26036	26036	26036	26003
26005	25997	999999	999999	26022	26022	26014	999999	26027	26027	26019	999999	26034	26034	26026	999999	26032	26032	26024	999999	26043	26043	26043	26035	26044	26044	26044	26036	26035	26035	26027	999999	26027	26027	26019	999999	0	999999	999999	999999	26010	26002	999999	999999	26031	26031	26023	999999	26023	26023	26015	999999	26014	26006	999999	999999	26036	26036	26028	999999	26003
26007	26007	25999	999999	26012	26012	26004	999999	26019	26019	26011	999999	26037	26037	26037	26029	26038	26038	26038	26030	26046	26046	999999	999999	26045	26045	999999	999999	26044	26044	999999	999999	26036	26036	26036	26028	26010	26010	26002	999999	999999	0	999999	999999	26027	26027	26027	26019	26031	26031	26031	26023	26007	26007	25999	999999	26047	26047	999999	999999	26013
26007	26007	26007	25999	26012	26012	26012	26004	26019	26019	26019	26011	26037	26037	26037	999999	26038	26038	26038	999999	26046	26046	26046	999999	26045	26045	26045	999999	26044	26044	26044	999999	26036	26036	26036	999999	26010	26010	26010	26002	999999	999999	0	999999	26027	26027	26027	999999	26031	26031	26031	999999	26007	26007	26007	25999	26047	26047	26047	999999	26013
26007	26007	26007	26007	26012	26012	26012	26012	26019	26019	26019	26019	26037	26037	26037	26037	26038	26038	26038	26038	26046	26046	26046	26046	26045	26045	26045	26045	26044	26044	26044	26044	26036	26036	26036	26036	26010	26010	26010	26010	999999	999999	999999	0	26027	26027	26027	26027	26031	26031	26031	26031	26007	26007	26007	26007	26047	26047	26047	26047	26013
26007	25999	999999	999999	26012	26004	999999	999999	26019	26011	999999	999999	26037	26037	26029	999999	26038	26038	26030	999999	26046	26046	26046	26038	26045	26045	26045	26037	26044	26044	26044	26036	26036	26036	26028	999999	26010	26002	999999	999999	0	999999	999999	999999	26027	26027	26019	999999	26031	26031	26023	999999	26007	25999	999999	999999	26047	26047	26047	26039	26013
26026	26026	26026	26018	26021	26021	26021	26013	26014	26014	26006	999999	26024	26024	26024	26016	26031	26031	26031	26023	26030	26030	26030	26022	26025	26025	26025	26017	26045	26045	999999	999999	26059	26059	999999	999999	26031	26031	26031	26023	26027	26027	26027	26019	999999	0	999999	999999	26031	26031	26031	26023	26035	26035	26035	26027	26055	26055	999999	999999	26031
26026	26026	26026	999999	26021	26021	26021	999999	26014	26014	26014	26006	26024	26024	26024	999999	26031	26031	26031	999999	26030	26030	26030	999999	26025	26025	26025	999999	26045	26045	26045	999999	26059	26059	26059	999999	26031	26031	26031	999999	26027	26027	26027	999999	999999	999999	0	999999	26031	26031	26031	999999	26035	26035	26035	999999	26055	26055	26055	999999	26031
26026	26026	26026	26026	26021	26021	26021	26021	26014	26014	26014	26014	26024	26024	26024	26024	26031	26031	26031	26031	26030	26030	26030	26030	26025	26025	26025	26025	26045	26045	26045	26045	26059	26059	26059	26059	26031	26031	26031	26031	26027	26027	26027	26027	999999	999999	999999	0	26031	26031	26031	26031	26035	26035	26035	26035	26055	26055	26055	26055	26031
26026	26026	26018	999999	26021	26021	26013	999999	26014	26006	999999	999999	26024	26024	26016	999999	26031	26031	26023	999999	26030	26030	26022	999999	26025	26025	26017	999999	26045	26045	26045	26037	26059	26059	26059	26051	26031	26031	26023	999999	26027	26027	26019	999999	0	999999	999999	999999	26031	26031	26023	999999	26035	26035	26027	999999	26055	26055	26055	26047	26031
26023	26023	26023	26015	26038	26038	26038	26030	26038	26038	26038	26030	26015	26015	26007	999999	26010	26010	26002	999999	26023	26023	26023	26015	26028	26028	26028	26020	26014	26014	26006	999999	26039	26039	26039	26031	26023	26023	26023	26015	26031	26031	26031	26023	26031	26031	26031	26023	999999	0	999999	999999	26037	26037	26037	26029	26023	26023	26023	26015	26020
26023	26023	26023	999999	26038	26038	26038	999999	26038	26038	26038	999999	26015	26015	26015	26007	26010	26010	26010	26002	26023	26023	26023	999999	26028	26028	26028	999999	26014	26014	26014	26006	26039	26039	26039	999999	26023	26023	26023	999999	26031	26031	26031	999999	26031	26031	26031	999999	999999	999999	0	999999	26037	26037	26037	999999	26023	26023	26023	999999	26020
26023	26023	26023	26023	26038	26038	26038	26038	26038	26038	26038	26038	26015	26015	26015	26015	26010	26010	26010	26010	26023	26023	26023	26023	26028	26028	26028	26028	26014	26014	26014	26014	26039	26039	26039	26039	26023	26023	26023	26023	26031	26031	26031	26031	26031	26031	26031	26031	999999	999999	999999	0	26037	26037	26037	26037	26023	26023	26023	26023	26020
26023	26023	26015	999999	26038	26038	26030	999999	26038	26038	26030	999999	26015	26007	999999	999999	26010	26002	999999	999999	26023	26023	26015	999999	26028	26028	26020	999999	26014	26006	999999	999999	26039	26039	26031	999999	26023	26023	26015	999999	26031	26031	26023	999999	26031	26031	26023	999999	0	999999	999999	999999	26037	26037	26029	999999	26023	26023	26015	999999	26020
26014	26014	26006	999999	26016	26016	26008	999999	26024	26024	26024	26016	26045	26045	999999	999999	26046	26046	999999	999999	26054	26054	999999	999999	26054	26054	999999	999999	26050	26050	999999	999999	26034	26034	26034	26026	26014	26014	26006	999999	26007	26007	25999	999999	26035	26035	26035	26027	26037	26037	26037	26029	999999	0	999999	999999	26051	26051	999999	999999	26018
26014	26014	26014	26006	26016	26016	26016	26008	26024	26024	26024	999999	26045	26045	26045	999999	26046	26046	26046	999999	26054	26054	26054	999999	26054	26054	26054	999999	26050	26050	26050	999999	26034	26034	26034	999999	26014	26014	26014	26006	26007	26007	26007	25999	26035	26035	26035	999999	26037	26037	26037	999999	999999	999999	0	999999	26051	26051	26051	999999	26018
26014	26014	26014	26014	26016	26016	26016	26016	26024	26024	26024	26024	26045	26045	26045	26045	26046	26046	26046	26046	26054	26054	26054	26054	26054	26054	26054	26054	26050	26050	26050	26050	26034	26034	26034	26034	26014	26014	26014	26014	26007	26007	26007	26007	26035	26035	26035	26035	26037	26037	26037	26037	999999	999999	999999	0	26051	26051	26051	26051	26018
26014	26006	999999	999999	26016	26008	999999	999999	26024	26024	26016	999999	26045	26045	26045	26037	26046	26046	26046	26038	26054	26054	26054	26046	26054	26054	26054	26046	26050	26050	26050	26042	26034	26034	26026	999999	26014	26006	999999	999999	26007	25999	999999	999999	26035	26035	26027	999999	26037	26037	26029	999999	0	999999	999999	999999	26051	26051	26051	26043	26018
26040	26040	26040	26032	26058	26058	999999	999999	26060	26060	999999	999999	26037	26037	26037	26029	26028	26028	26028	26020	26042	26042	999999	999999	26048	26048	999999	999999	26014	26014	26006	999999	26032	26032	26032	26024	26036	26036	26036	26028	26047	26047	999999	999999	26055	26055	999999	999999	26023	26023	26023	26015	26051	26051	999999	999999	999999	0	999999	999999	26033
26040	26040	26040	999999	26058	26058	26058	999999	26060	26060	26060	999999	26037	26037	26037	999999	26028	26028	26028	999999	26042	26042	26042	999999	26048	26048	26048	999999	26014	26014	26014	26006	26032	26032	26032	999999	26036	26036	26036	999999	26047	26047	26047	999999	26055	26055	26055	999999	26023	26023	26023	999999	26051	26051	26051	999999	999999	999999	0	999999	26033
26040	26040	26040	26040	26058	26058	26058	26058	26060	26060	26060	26060	26037	26037	26037	26037	26028	26028	26028	26028	26042	26042	26042	26042	26048	26048	26048	26048	26014	26014	26014	26014	26032	26032	26032	26032	26036	26036	26036	26036	26047	26047	26047	26047	26055	26055	26055	26055	26023	26023	26023	26023	26051	26051	26051	26051	999999	999999	999999	0	26033
26040	26040	26032	999999	26058	26058	26058	26050	26060	26060	26060	26052	26037	26037	26029	999999	26028	26028	26020	999999	26042	26042	26042	26034	26048	26048	26048	26040	26014	26006	999999	999999	26032	26032	26024	999999	26036	26036	26028	999999	26047	26047	26047	26039	26055	26055	26055	26047	26023	26023	26015	999999	26051	26051	26051	26043	0	999999	999999	999999	26033
26006	26006	25998	999999	26025	26025	26025	26017	26029	26029	26029	26021	26031	26031	26031	26023	26029	26029	26029	26021	26040	26040	26040	26032	26042	26042	999999	999999	26031	26031	26031	26023	26027	26027	26027	26019	26003	26003	25995	999999	26013	26013	26005	999999	26031	26031	26031	26023	26020	26020	26012	999999	26018	26018	26010	999999	26033	26033	26033	26025	999999
GTSP_SET_SECTION:
1 1 2 3 4 -1
2 5 6 7 8 -1
3 9 10 11 12 -1
4 13 14 15 16 -1
5 17 18 19 20 -1
6 21 22 23 24 -1
7 25 26 27 28 -1
8 29 30 31 32 -1
9 33 34 35 36 -1
10 37 38 39 40 -1
11 41 42 43 44 -1
12 45 46 47 48 -1
13 49 50 51 52 -1
14 53 54 55 56 -1
15 57 58 59 60 -1
16 61 62 63 64 -1
17 65 -1
EOF